n = 15
Q1 = [0 0 42 0 29 0 46 19 46 43 10 13 0 34 44; 0 0 31 17 14 0 0 11 0 7 8 48 0 0 5; 0 0 0 0 29 29 27 47 37 36 0 38 20 36 0; 0 0 0 0 0 0 15 11 30 36 37 49 29 28 36; 0 0 0 0 0 6 0 41 0 0 42 47 28 30 48; 0 0 0 0 0 0 14 0 47 23 29 23 39 26 13; 0 0 0 0 0 0 0 7 8 0 0 0 0 7 19; 0 0 0 0 0 0 0 0 12 14 0 0 40 9 0; 0 0 0 0 0 0 0 0 0 39 46 34 36 0 0; 0 0 0 0 0 0 0 0 0 0 0 44 16 32 0; 0 0 0 0 0 0 0 0 0 0 0 5 25 49 25; 0 0 0 0 0 0 0 0 0 0 0 0 0 0 38; 0 0 0 0 0 0 0 0 0 0 0 0 0 47 35; 0 0 0 0 0 0 0 0 0 0 0 0 0 0 36; 0 0 0 0 0 0 0 0 0 0 0 0 0 0 0]
Q2 = [0.0 0.0 1.0 0.0 3.0 0.0 1.0 49.0 2.0 5.0 42.0 45.0 0.0 11.0 0.0; 0.0 0.0 18.0 44.0 35.0 0.0 0.0 45.0 0.0 45.0 49.0 1.0 0.0 0.0 45.0; 0.0 0.0 0.0 0.0 20.0 13.0 12.0 2.0 9.0 12.0 0.0 11.0 39.0 0.0 0.0; 0.0 0.0 0.0 0.0 0.0 0.0 44.0 46.0 1.0 7.0 7.0 0.0 12.0 7.0 10.0; 0.0 0.0 0.0 0.0 0.0 48.0 0.0 4.0 0.0 0.0 2.0 1.0 20.0 3.0 1.0; 0.0 0.0 0.0 0.0 0.0 0.0 43.0 0.0 0.0 38.0 11.0 31.0 2.0 19.0 46.0; 0.0 0.0 0.0 0.0 0.0 0.0 0.0 47.0 46.0 0.0 0.0 0.0 0.0 45.0 35.0; 0.0 0.0 0.0 0.0 0.0 0.0 0.0 0.0 44.0 39.0 0.0 0.0 9.0 47.0 0.0; 0.0 0.0 0.0 0.0 0.0 0.0 0.0 0.0 0.0 10.0 0.0 2.0 10.0 0.0 0.0; 0.0 0.0 0.0 0.0 0.0 0.0 0.0 0.0 0.0 0.0 0.0 0.0 46.0 8.0 0.0; 0.0 0.0 0.0 0.0 0.0 0.0 0.0 0.0 0.0 0.0 0.0 49.0 18.0 0.0 9.0; 0.0 0.0 0.0 0.0 0.0 0.0 0.0 0.0 0.0 0.0 0.0 0.0 0.0 0.0 1.0; 0.0 0.0 0.0 0.0 0.0 0.0 0.0 0.0 0.0 0.0 0.0 0.0 0.0 2.0 12.0; 0.0 0.0 0.0 0.0 0.0 0.0 0.0 0.0 0.0 0.0 0.0 0.0 0.0 0.0 1.0; 0.0 0.0 0.0 0.0 0.0 0.0 0.0 0.0 0.0 0.0 0.0 0.0 0.0 0.0 0.0]
Q3 = [0 68 18 68 61 68 16 0 9 3 15 10 68 3 2; 0 0 1 2 12 68 68 6 68 12 4 17 68 68 16; 0 0 0 68 12 22 27 1 20 20 68 14 8 17 68; 0 0 0 0 68 68 4 4 51 21 8 6 18 5 1; 0 0 0 0 0 7 68 4 68 68 24 19 14 67 1; 0 0 0 0 0 0 11 68 7 0 4 2 7 6 2; 0 0 0 0 0 0 0 8 8 68 68 68 68 9 4; 0 0 0 0 0 0 0 0 11 3 68 68 0 7 68; 0 0 0 0 0 0 0 0 0 15 8 29 8 68 68; 0 0 0 0 0 0 0 0 0 0 68 13 5 12 68; 0 0 0 0 0 0 0 0 0 0 0 9 5 18 13; 0 0 0 0 0 0 0 0 0 0 0 0 68 68 13; 0 0 0 0 0 0 0 0 0 0 0 0 0 19 18; 0 0 0 0 0 0 0 0 0 0 0 0 0 0 31; 0 0 0 0 0 0 0 0 0 0 0 0 0 0 0]
